10  5
5
	0	71	1	79	2	85	3	82	4	83
	0	84	1	71	2	66	3	68	4	81
	0	78	1	81	2	75	3	72	4	87
	0	78	1	75	2	66	3	72	4	88
	0	72	1	88	2	83	3	85	4	88
	0	86	1	88	2	79	3	82	4	78
	0	75	1	66	2	86	3	78	4	78
	0	80	1	79	2	66	3	83	4	78
	0	73	1	73	2	67	3	77	4	71
	0	80	1	77	2	83	3	78	4	67
